(set-logic ALL)
(set-option :produce-models true)
(declare-fun SetToCheckUA () (Set (Tuple Int Int)))
(assert (= SetToCheckUA (insert (mkTuple 12 12) 
(mkTuple 5 5) 
(mkTuple 4 4) 
(mkTuple 7 7) 
(mkTuple 6 6) 
(mkTuple 2 2) 
(mkTuple 3 3) 
(mkTuple 9 9) 
(mkTuple 10 10) 
(singleton (mkTuple 11 11)))))
(declare-fun SetToCheckAT () (Set (Tuple Int Int)))
(assert (= SetToCheckAT (insert (mkTuple 13 13) 
(singleton (mkTuple 1 1)))))
(declare-fun ASSIGN* (Int) (Set (Tuple Int Int)))
(assert (= (ASSIGN* 0) (insert (mkTuple 12 7) 
(mkTuple 11 8) 
(mkTuple 13 8) 
(mkTuple 2 2) 
(mkTuple 3 3) 
(mkTuple 2 4) 
(mkTuple 1 1) 
(mkTuple 11 11) 
(mkTuple 4 5) 
(mkTuple 1 8) 
(mkTuple 7 8) 
(mkTuple 5 8) 
(mkTuple 3 8) 
(mkTuple 9 8) 
(mkTuple 10 10) 
(mkTuple 10 8) 
(mkTuple 13 13) 
(mkTuple 10 6) 
(mkTuple 12 8) 
(mkTuple 11 9) 
(mkTuple 2 3) 
(mkTuple 2 5) 
(mkTuple 3 4) 
(mkTuple 5 5) 
(mkTuple 12 12) 
(mkTuple 4 4) 
(mkTuple 7 7) 
(mkTuple 1 13) 
(mkTuple 3 5) 
(mkTuple 6 8) 
(mkTuple 6 6) 
(mkTuple 2 8) 
(mkTuple 4 8) 
(mkTuple 8 8) 
(singleton (mkTuple 9 9)))))
(declare-fun ASSIGN (Int) (Set (Tuple Int Int)))
(assert (= (ASSIGN 0) (insert (mkTuple 12 7) 
(mkTuple 13 8) 
(mkTuple 2 2) 
(mkTuple 3 3) 
(mkTuple 11 11) 
(mkTuple 1 1) 
(mkTuple 4 5) 
(mkTuple 7 8) 
(mkTuple 5 8) 
(mkTuple 3 8) 
(mkTuple 9 8) 
(mkTuple 10 10) 
(mkTuple 10 6) 
(mkTuple 13 13) 
(mkTuple 11 9) 
(mkTuple 2 3) 
(mkTuple 3 4) 
(mkTuple 12 12) 
(mkTuple 5 5) 
(mkTuple 4 4) 
(mkTuple 6 8) 
(mkTuple 7 7) 
(mkTuple 1 13) 
(mkTuple 6 6) 
(singleton (mkTuple 9 9)))))
(declare-fun ASSOC (Int) (Set (Tuple Int Int Int)))

(assert (= (ASSOC 0) (insert(mkTuple 3 15 13) 
(mkTuple 3 16 13) 
(mkTuple 4 14 13) 
(singleton (mkTuple 5 17 13)))))

(declare-fun NODES () (Set (Tuple Int Int)))
(assert (= NODES (insert (mkTuple 1 1) 
(mkTuple 2 2) 
(mkTuple 3 3) 
(mkTuple 4 4) 
(mkTuple 5 5) 
(mkTuple 6 6) 
(mkTuple 7 7) 
(mkTuple 8 8) 
(mkTuple 9 9) 
(mkTuple 10 10) 
(mkTuple 11 11) 
(mkTuple 12 12) 
(singleton (mkTuple 13 13))))) 


(declare-fun obligation3 (Int) Bool)
(declare-fun obligation2 (Int) Bool)
(declare-fun obligation5 (Int) Bool)
(declare-fun obligation4 (Int) Bool)
(declare-fun obligation1 (Int) Bool)
;--------------------------------------------------------------------------------------------------------------------
;STEP1

; 5.1 a->PRE
(declare-fun obligation1U_0 () Int)
(declare-fun obligation1UA_0 () Int)
(declare-fun obligation1AT_0 () Int)
(declare-fun obligation1UO_0 () Int)
(declare-fun obligation1ar_0 () Int)
(declare-fun obligation1S_0 () Int)
(declare-fun obligation1T_0 () Int)
(assert (>= obligation1U_0 0))
(assert (>= obligation1UA_0 0))
(assert (>= obligation1AT_0 0))
(assert (>= obligation1UO_0 0))
(assert (or (= obligation1ar_0 17)
 (= obligation1ar_0 14)
))
(assert (= obligation1S_0 4))
(assert (= obligation1T_0 1))
(assert (=> (= (obligation1 0) true) (and
 (member (mkTuple  obligation1U_0 obligation1S_0) (ASSIGN* 0))
 (member (mkTuple  obligation1S_0 obligation1UA_0) (ASSIGN* 0))
(member (mkTuple obligation1UA_0 obligation1ar_0 obligation1AT_0) (ASSOC 0))
 (member (mkTuple  obligation1UO_0 obligation1AT_0) (ASSIGN* 0))
 (member (mkTuple  obligation1T_0 obligation1UO_0) (ASSIGN* 0))
 (distinct obligation1S_0 obligation1U_0)
)))


(declare-fun obligation2U_0 () Int)
(declare-fun obligation2UA_0 () Int)
(declare-fun obligation2AT_0 () Int)
(declare-fun obligation2UO_0 () Int)
(declare-fun obligation2ar_0 () Int)
(declare-fun obligation2S_0 () Int)
(declare-fun obligation2T_0 () Int)
(assert (>= obligation2U_0 0))
(assert (>= obligation2UA_0 0))
(assert (>= obligation2AT_0 0))
(assert (>= obligation2UO_0 0))
(assert (or (= obligation2ar_0 17)
))
(assert (= obligation2S_0 7))
(assert (= obligation2T_0 1))
(assert (=> (= (obligation2 0) true) (and
 (member (mkTuple  obligation2U_0 obligation2S_0) (ASSIGN* 0))
 (member (mkTuple  obligation2S_0 obligation2UA_0) (ASSIGN* 0))
(member (mkTuple obligation2UA_0 obligation2ar_0 obligation2AT_0) (ASSOC 0))
 (member (mkTuple  obligation2UO_0 obligation2AT_0) (ASSIGN* 0))
 (member (mkTuple  obligation2T_0 obligation2UO_0) (ASSIGN* 0))
 (distinct obligation2S_0 obligation2U_0)
)))


(declare-fun obligation3U_0 () Int)
(declare-fun obligation3UA_0 () Int)
(declare-fun obligation3AT_0 () Int)
(declare-fun obligation3UO_0 () Int)
(declare-fun obligation3ar_0 () Int)
(declare-fun obligation3S_0 () Int)
(declare-fun obligation3T_0 () Int)
(assert (>= obligation3U_0 0))
(assert (>= obligation3UA_0 0))
(assert (>= obligation3AT_0 0))
(assert (>= obligation3UO_0 0))
(assert (or (= obligation3ar_0 17)
))
(assert (= obligation3S_0 9))
(assert (= obligation3T_0 1))
(assert (=> (= (obligation3 0) true) (and
 (member (mkTuple  obligation3U_0 obligation3S_0) (ASSIGN* 0))
 (member (mkTuple  obligation3S_0 obligation3UA_0) (ASSIGN* 0))
(member (mkTuple obligation3UA_0 obligation3ar_0 obligation3AT_0) (ASSOC 0))
 (member (mkTuple  obligation3UO_0 obligation3AT_0) (ASSIGN* 0))
 (member (mkTuple  obligation3T_0 obligation3UO_0) (ASSIGN* 0))
 (distinct obligation3S_0 obligation3U_0)
)))


(declare-fun obligation4U_0 () Int)
(declare-fun obligation4UA_0 () Int)
(declare-fun obligation4AT_0 () Int)
(declare-fun obligation4UO_0 () Int)
(declare-fun obligation4ar_0 () Int)
(declare-fun obligation4S_0 () Int)
(declare-fun obligation4T_0 () Int)
(assert (>= obligation4U_0 0))
(assert (>= obligation4UA_0 0))
(assert (>= obligation4AT_0 0))
(assert (>= obligation4UO_0 0))
(assert (or (= obligation4ar_0 17)
))
(assert (= obligation4S_0 6))
(assert (= obligation4T_0 1))
(assert (=> (= (obligation4 0) true) (and
 (member (mkTuple  obligation4U_0 obligation4S_0) (ASSIGN* 0))
 (member (mkTuple  obligation4S_0 obligation4UA_0) (ASSIGN* 0))
(member (mkTuple obligation4UA_0 obligation4ar_0 obligation4AT_0) (ASSOC 0))
 (member (mkTuple  obligation4UO_0 obligation4AT_0) (ASSIGN* 0))
 (member (mkTuple  obligation4T_0 obligation4UO_0) (ASSIGN* 0))
 (distinct obligation4S_0 obligation4U_0)
)))


(declare-fun obligation5U_0 () Int)
(declare-fun obligation5UA_0 () Int)
(declare-fun obligation5AT_0 () Int)
(declare-fun obligation5UO_0 () Int)
(declare-fun obligation5ar_0 () Int)
(declare-fun obligation5S_0 () Int)
(declare-fun obligation5T_0 () Int)
(assert (>= obligation5U_0 0))
(assert (>= obligation5UA_0 0))
(assert (>= obligation5AT_0 0))
(assert (>= obligation5UO_0 0))
(assert (or (= obligation5ar_0 17)
))
(assert (= obligation5S_0 4))
(assert (= obligation5T_0 1))
(assert (=> (= (obligation5 0) true) (and
 (member (mkTuple  obligation5U_0 obligation5S_0) (ASSIGN* 0))
 (member (mkTuple  obligation5S_0 obligation5UA_0) (ASSIGN* 0))
(member (mkTuple obligation5UA_0 obligation5ar_0 obligation5AT_0) (ASSOC 0))
 (member (mkTuple  obligation5UO_0 obligation5AT_0) (ASSIGN* 0))
 (member (mkTuple  obligation5T_0 obligation5UO_0) (ASSIGN* 0))
 (distinct obligation5S_0 obligation5U_0)
)))




; 5.2 a->Eff


(assert (=> (= (obligation1 0) true)(= (ASSIGN* 1)(union (singleton (mkTuple 7 4)) (union (join (singleton (mkTuple 7 4)) (join (singleton (mkTuple 4 4)) (ASSIGN* 0))) (ASSIGN* 0))))))
(assert (=> (= (obligation1 0) true)(= (ASSIGN 1)( union (ASSIGN 0) (singleton (mkTuple 7 4))))))

(assert (=> (=(obligation1 0) true) (= (ASSOC 1) (ASSOC 0))))




(assert (=> (= (obligation2 0) true)(= (ASSIGN* 1) (union (join (join (union (singleton (mkTuple 9 9)) (join (ASSIGN* 0) (singleton (mkTuple 9 9)))) (singleton (mkTuple 9 7))) (union (singleton (mkTuple 7 7)) (join (singleton (mkTuple 7 7)) (ASSIGN* 0) ))) (ASSIGN* 0)))))
(assert (=> (= (obligation2 0) true)(= (ASSIGN 1)( union (ASSIGN 0) (singleton (mkTuple 9 7))))))

(assert (=> (=(obligation2 0) true) (= (ASSOC 1) (ASSOC 0))))




(assert (=> (= (obligation3 0) true)(= (ASSIGN* 1) (union (join (join (union (singleton (mkTuple 6 6)) (join (ASSIGN* 0) (singleton (mkTuple 6 6)))) (singleton (mkTuple 6 9))) (union (singleton (mkTuple 9 9)) (join (singleton (mkTuple 9 9)) (ASSIGN* 0) ))) (ASSIGN* 0)))))
(assert (=> (= (obligation3 0) true)(= (ASSIGN 1)( union (ASSIGN 0) (singleton (mkTuple 6 9))))))

(assert (=> (=(obligation3 0) true) (= (ASSOC 1) (ASSOC 0))))




(assert (=> (=(obligation4 0) true) (= (ASSIGN* 1) (ASSIGN* 0))))
(assert (=> (=(obligation4 0) true) (= (ASSIGN 1) (ASSIGN 0))))
(assert (=> (= (obligation4 0) true)(= (ASSOC 1) (union(ASSOC 0)(singleton(mkTuple 3 18 13))))))




(assert (=> (= (obligation5 0) true)(= (ASSIGN* 1)(setminus (ASSIGN* 0) (setminus (setminus (union (singleton (mkTuple 9 4)) (join (singleton (mkTuple 9 4)) (ASSIGN* 0))) (join (join (intersection (join (union  (singleton (mkTuple 9 9)) (join (ASSIGN* 0)  (singleton (mkTuple 9 9)))) (transpose (union  (singleton (mkTuple 9 9)) (join (ASSIGN* 0)  (singleton (mkTuple 9 9)))))) NODES) (setminus (ASSIGN 0) (singleton (mkTuple 9 4)))) (ASSIGN* 0))) (join (join (intersection (join (union  (singleton (mkTuple 9 9)) (join (ASSIGN* 0)  (singleton (mkTuple 9 9)))) (transpose (union  (singleton (mkTuple 9 9)) (join (ASSIGN* 0)  (singleton (mkTuple 9 9)))))) NODES) (setminus (ASSIGN 0) (singleton (mkTuple 9 4)))) (ASSIGN* 0)))))))
(assert (=> (= (obligation5 0) true)(= (ASSIGN 1) (setminus (ASSIGN 0) (singleton (mkTuple 9 4))))))

(assert (=> (=(obligation5 0) true) (= (ASSOC 1) (ASSOC 0))))




; 5.3 change implies the execution
(assert (=> (distinct (ASSIGN* 1) (ASSIGN* 0))
(or 
(= (obligation3 0) true)(= (obligation2 0) true)(= (obligation5 0) true)(= (obligation4 0) true)(= (obligation1 0) true))))
(assert (=> (distinct (ASSIGN 1) (ASSIGN 0))
(or (= (obligation3 0) true)(= (obligation2 0) true)(= (obligation5 0) true)(= (obligation4 0) true)(= (obligation1 0) true))))
(assert (=> (distinct (ASSOC 1) (ASSOC 0))
(or 
(= (obligation3 0) true)(= (obligation2 0) true)(= (obligation5 0) true)(= (obligation4 0) true)(= (obligation1 0) true))))


; 5.4 Exactly one naive


; AT MOST ONE
(assert (not (and (= (obligation3 0) true) (= (obligation2 0) true))))
(assert (not (and (= (obligation3 0) true) (= (obligation5 0) true))))
(assert (not (and (= (obligation3 0) true) (= (obligation4 0) true))))
(assert (not (and (= (obligation3 0) true) (= (obligation1 0) true))))
(assert (not (and (= (obligation2 0) true) (= (obligation5 0) true))))
(assert (not (and (= (obligation2 0) true) (= (obligation4 0) true))))
(assert (not (and (= (obligation2 0) true) (= (obligation1 0) true))))
(assert (not (and (= (obligation5 0) true) (= (obligation4 0) true))))
(assert (not (and (= (obligation5 0) true) (= (obligation1 0) true))))
(assert (not (and (= (obligation4 0) true) (= (obligation1 0) true))))

; AT LEAST ONE
(assert (or(= (obligation3 0) true)(= (obligation2 0) true)(= (obligation5 0) true)(= (obligation4 0) true)(= (obligation1 0) true)))


(declare-fun queryVARPERMITUA_Attorneys_accept_Case3Info_1 () Int)
(declare-fun queryVARPERMITAT_Attorneys_accept_Case3Info_1 () Int)
(assert 
(and(member (mkTuple  4  queryVARPERMITUA_Attorneys_accept_Case3Info_1 ) (ASSIGN* 1))(member (mkTuple  queryVARPERMITUA_Attorneys_accept_Case3Info_1 17  queryVARPERMITAT_Attorneys_accept_Case3Info_1 ) (ASSOC 1))(member (mkTuple  1  queryVARPERMITAT_Attorneys_accept_Case3Info_1 ) (ASSIGN* 1)))
)

(assert 
(and (= (obligation2 0) true)
))
(check-sat)
(get-value (obligation3))
(get-value (obligation2))
(get-value (obligation5))
(get-value (obligation4))
(get-value (obligation1))
(get-value (obligation1U_0))
(get-value (obligation1UA_0))
(get-value (obligation1AT_0))
(get-value (obligation1UO_0))
(get-value (obligation1S_0))
(get-value (obligation1T_0))
(get-value (obligation1ar_0))
(get-value (obligation2U_0))
(get-value (obligation2UA_0))
(get-value (obligation2AT_0))
(get-value (obligation2UO_0))
(get-value (obligation2S_0))
(get-value (obligation2T_0))
(get-value (obligation2ar_0))
(get-value (obligation3U_0))
(get-value (obligation3UA_0))
(get-value (obligation3AT_0))
(get-value (obligation3UO_0))
(get-value (obligation3S_0))
(get-value (obligation3T_0))
(get-value (obligation3ar_0))
(get-value (obligation4U_0))
(get-value (obligation4UA_0))
(get-value (obligation4AT_0))
(get-value (obligation4UO_0))
(get-value (obligation4S_0))
(get-value (obligation4T_0))
(get-value (obligation4ar_0))
(get-value (obligation5U_0))
(get-value (obligation5UA_0))
(get-value (obligation5AT_0))
(get-value (obligation5UO_0))
(get-value (obligation5S_0))
(get-value (obligation5T_0))
(get-value (obligation5ar_0))
